6576087809617935785503,7,1,2,05,11,1,2,05,7,1,2,04,2,1,2,07,1,1,2,03,13,1,2,04,7,1,2,015,5,1,2,010,12,1,2,09,3,1,2,010,15,1,2,05,10,1,2,01,4,1,2,03,8,1,2,02,13,1,2,02,12,1,2,015,3,1,2,011,12,1,2,010,1,1,2,03,12,1,2,011,2,1,2,05,9,1,2,011,13,1,2,010,13,1,2,01,8,1,2,010,3,1,2,06,5,1,2,010,14,1,2,04,12,1,2,011,3,1,2,014,5,1,2,014,4,1,2,05,10,1,2,014,13,1,2,014,13,1,2,01,6,1,2,02,5,1,2,012,3,1,2,011,9,1,2,012,9,1,2,03,12,1,2,01,8,1,2,01,5,1,2,013,9,1,2,04,15,1,2,01,1,1,2,015,14,1,2,05,14,1,2,09,4,1,2,01,12,1,2,0